4 
5  13 28 39 53 
6  06 20 35 48 
7  03 18 33 48 
8  03 18 33 48 
9  03 18 33 48 
10  02 17 32 47 
11  02 17 32 47 
12  02 17 32 47 
13  02 17 32 47 
14  02 17 32 47 
15  02 17 32 47 
16  02 17 32 47 
17  02 17 32 47 
18  03 18 33 48 
19  03 19 34 49 
20  04 17 28 43 58 
21  13 28 43 58 
22  12 26 38 53 
23  08 
0 
